unsat
(define-fun inv-f ((x Int) (y Int)) Bool (or (not (>= x 0)) (>= y 0)))
0.00user 0.01system 0:00.01elapsed 93%CPU (0avgtext+0avgdata 24504maxresident)k
8inputs+8outputs (0major+912minor)pagefaults 0swaps
